File : Instances/p70
Used 69s
33390

1 0 0 0 1 0 0 0 0 1 1 1 1 1 0 0 0 0 0 1 0 1 0 0 0 0 0 1 0 0 
11 19 21 27 21 12 21 27 27 27 4 19 13 13 19 11 13 10 27 0 27 21 21 0 10 27 27 19 4 21 19 19 4 21 27 12 9 9 27 21 27 9 12 4 9 19 13 21 19 9 0 21 21 21 9 12 11 9 27 11 4 0 11 9 13 11 0 19 19 12 11 12 19 9 10 10 10 10 9 21 10 0 9 12 4 13 19 0 27 11 11 19 11 11 0 13 11 12 0 11 19 21 12 11 4 0 4 27 27 13 19 4 27 12 12 9 11 11 0 9 9 11 0 19 9 21 21 11 9 0 11 21 11 10 13 9 13 13 11 10 12 27 12 11 12 0 27 21 27 12 27 0 10 0 9 11 21 21 13 13 13 27 10 0 10 27 13 4 13 21 13 9 19 10 4 0 0 10 4 10 0 21 21 19 12 9 11 10 0 21 21 21 19 4 11 12 11 21 10 19 
